c Random CNF formula
p cnf 200 42
58 132 -102 0
166 -186 6 0
25 -146 -150 0
-94 145 17 0
-49 109 -141 0
57 74 179 0
-21 -19 187 0
2 102 -92 0
-105 -170 71 0
-8 -115 113 0
105 166 -67 0
-2 109 -134 0
106 14 137 0
107 6 -171 0
139 -17 192 0
-162 184 -80 0
61 131 138 0
37 170 144 0
-61 -194 64 0
196 -54 36 0
-123 -159 148 0
-19 99 164 0
-77 -62 -8 0
102 85 132 0
105 -95 -129 0
64 -69 -2 0
-48 98 -99 0
134 -52 -27 0
-151 -52 35 0
-32 192 -70 0
-185 122 -59 0
-197 -100 146 0
200 18 188 0
-114 -70 -50 0
43 16 64 0
-76 -177 199 0
168 190 -71 0
-44 143 -162 0
20 185 -162 0
-134 50 132 0
126 78 123 0
-49 -99 -198 0
